networks/zoo_114_3192/lower/zoo_114_3192-lower.txt
Number of groups: 61
Flow 31: {1 32 0} {32 89 0} 
Flow 97: {2 5 0} {5 10 0} {10 42 0} {42 99 0} 
Flow 155: {46 44 0} {44 101 0} 
Flow 160: {3 32 0} {32 49 0} {49 106 0} 
Flow 192: {4 34 0} {34 25 0} {25 82 0} 
Flow 305: {6 52 0} {52 26 0} {26 83 0} 
Flow 346: {7 42 0} {42 10 0} {10 11 0} {11 68 0} 
Flow 394: {8 5 0} {5 2 0} {2 59 0} 
Flow 445: {5 52 0} {52 14 0} {14 54 0} {54 111 0} 
Flow 492: {9 22 0} {22 21 0} {21 18 0} {18 46 0} {46 45 0} {45 102 0} 
Flow 600: {11 10 0} {10 41 0} 
Flow 672: {12 20 0} {20 21 0} {21 10 0} {10 43 0} {43 57 0} {57 114 0} 
Flow 708: {13 27 0} {27 56 0} {56 37 0} {37 94 0} 
Flow 874: {16 31 0} {31 17 0} {17 53 0} {53 35 0} 
Flow 911: {53 32 0} {32 15 0} {15 72 0} 
Flow 941: {17 31 0} {31 14 0} {14 46 0} {46 103 0} 
Flow 1030: {19 21 0} {21 23 0} {23 80 0} 
Flow 1060: {34 53 0} {53 110 0} 
Flow 1141: {22 79 0} 
Flow 1192: {31 16 0} {16 73 0} 
Flow 1251: {23 21 0} {21 19 0} {19 76 0} 
Flow 1335: {24 34 0} {34 48 0} {48 105 0} 
Flow 1398: {25 34 0} {34 15 0} {15 55 0} {55 112 0} 
Flow 1432: {15 33 0} {33 90 0} 
Flow 1439: {26 52 0} {52 18 0} {18 40 0} {40 97 0} 
Flow 1532: {21 20 0} {20 77 0} 
Flow 1552: {28 27 0} {27 14 0} {14 52 0} {52 41 0} {41 98 0} 
Flow 1569: {29 31 0} {31 32 0} {32 1 0} {1 58 0} 
Flow 1654: {30 31 0} {31 88 0} 
Flow 1757: {14 43 0} {43 10 0} {10 21 0} {21 78 0} 
Flow 1826: {33 15 0} {15 34 0} {34 35 0} {35 92 0} 
Flow 1883: {36 93 0} 
Flow 1921: {35 53 0} {53 17 0} {17 74 0} 
Flow 1933: {35 34 0} {34 32 0} {32 31 0} {31 29 0} {29 86 0} 
Flow 2023: {37 34 0} {34 52 0} {52 7 0} {7 64 0} 
Flow 2127: {38 18 0} {18 52 0} {52 56 0} 
Flow 2137: {39 46 0} {46 18 0} {18 21 0} {21 22 0} {22 9 0} {9 66 0} 
Flow 2222: {40 18 0} {18 38 0} {38 95 0} 
Flow 2245: {41 10 0} {10 5 0} {5 62 0} 
Flow 2246: {41 52 0} {52 6 0} {6 63 0} 
Flow 2347: {42 7 0} {7 52 0} {52 109 0} 
Flow 2454: {44 46 0} {46 47 0} {47 104 0} 
Flow 2494: {45 46 0} {46 14 0} {14 31 0} {31 30 0} {30 87 0} 
Flow 2615: {47 46 0} {46 39 0} {39 96 0} 
Flow 2644: {20 12 0} {12 69 0} 
Flow 2645: {27 13 0} {13 70 0} 
Flow 2656: {48 34 0} {34 24 0} {24 81 0} 
Flow 2722: {49 32 0} {32 34 0} {34 91 0} 
Flow 2796: {50 15 0} {15 32 0} {32 53 0} 
Flow 2828: {51 37 0} {37 56 0} {56 27 0} {27 28 0} {28 85 0} 
Flow 2899: {43 100 0} 
Flow 2930: {18 75 0} 
Flow 2939: {32 14 0} {14 27 0} {27 84 0} 
Flow 2967: {53 34 0} {34 36 0} {36 56 0} {56 113 0} 
Flow 2982: {54 14 0} {14 71 0} 
Flow 3074: {55 15 0} {15 50 0} {50 107 0} 
Flow 3084: {56 36 0} {36 34 0} {34 4 0} {4 61 0} 
Flow 3088: {56 52 0} {52 5 0} {5 8 0} {8 65 0} 
Flow 3090: {52 10 0} {10 67 0} 
Flow 3139: {57 43 0} {43 14 0} {14 32 0} {32 3 0} {3 60 0} 
Flow 3187: {10 52 0} {52 34 0} {34 37 0} {37 51 0} {51 108 0} 
Time taken running everything: 19 seconds
