networks/zoo_114_3192/lower/zoo_114_3192-lower.sol
<?xml version = "1.0" encoding="UTF-8" standalone="yes"?>
<CPLEXSolution version="1.2">
 <header
   problemName="networks/zoo_114_3192/zoo_114_3192-lower.lp"
   solutionName="incumbent"
   solutionIndex="-1"
   objectiveValue="61"
   solutionTypeValue="3"
   solutionTypeString="primal"
   solutionStatusValue="101"
   solutionStatusString="integer optimal solution"
   solutionMethodString="mip"
   primalFeasible="1"
   dualFeasible="1"
   MIPNodes="0"
   MIPIterations="0"
   writeLevel="3"/>
 <quality
   epInt="1.0000000000000001e-05"
   epRHS="9.9999999999999995e-07"
   maxIntInfeas="0"
   maxPrimalInfeas="0"
   maxX="1"
   maxSlack="1"/>
 <variables>
  <variable name="Y(31,32)" index="3451" value="1"/>
  <variable name="Y(97,42)" index="10985" value="1"/>
  <variable name="Y(155,44)" index="17599" value="1"/>
  <variable name="Y(160,49)" index="18174" value="1"/>
  <variable name="Y(192,25)" index="21798" value="1"/>
  <variable name="Y(305,26)" index="34681" value="1"/>
  <variable name="Y(346,11)" index="39340" value="1"/>
  <variable name="Y(394,2)" index="44803" value="1"/>
  <variable name="Y(445,54)" index="50669" value="1"/>
  <variable name="Y(492,45)" index="56018" value="1"/>
  <variable name="Y(600,10)" index="68295" value="1"/>
  <variable name="Y(672,57)" index="76550" value="1"/>
  <variable name="Y(708,37)" index="80634" value="1"/>
  <variable name="Y(874,53)" index="99574" value="1"/>
  <variable name="Y(911,15)" index="103754" value="1"/>
  <variable name="Y(941,46)" index="107205" value="1"/>
  <variable name="Y(1030,23)" index="117328" value="1"/>
  <variable name="Y(1060,53)" index="120778" value="1"/>
  <variable name="Y(1141,22)" index="129981" value="1"/>
  <variable name="Y(1192,16)" index="135789" value="1"/>
  <variable name="Y(1251,19)" index="142518" value="1"/>
  <variable name="Y(1335,48)" index="152123" value="1"/>
  <variable name="Y(1398,55)" index="159312" value="1"/>
  <variable name="Y(1432,33)" index="163166" value="1"/>
  <variable name="Y(1439,40)" index="163971" value="1"/>
  <variable name="Y(1532,20)" index="174553" value="1"/>
  <variable name="Y(1552,41)" index="176854" value="1"/>
  <variable name="Y(1569,1)" index="178752" value="1"/>
  <variable name="Y(1654,31)" index="188472" value="1"/>
  <variable name="Y(1757,21)" index="200204" value="1"/>
  <variable name="Y(1826,35)" index="208084" value="1"/>
  <variable name="Y(1883,36)" index="214583" value="1"/>
  <variable name="Y(1921,17)" index="218896" value="1"/>
  <variable name="Y(1933,29)" index="220276" value="1"/>
  <variable name="Y(2023,7)" index="230514" value="1"/>
  <variable name="Y(2127,52)" index="242415" value="1"/>
  <variable name="Y(2137,9)" index="243512" value="1"/>
  <variable name="Y(2222,38)" index="253231" value="1"/>
  <variable name="Y(2245,5)" index="255820" value="1"/>
  <variable name="Y(2246,6)" index="255935" value="1"/>
  <variable name="Y(2347,52)" index="267495" value="1"/>
  <variable name="Y(2454,47)" index="279688" value="1"/>
  <variable name="Y(2494,30)" index="284231" value="1"/>
  <variable name="Y(2615,39)" index="298034" value="1"/>
  <variable name="Y(2644,12)" index="301313" value="1"/>
  <variable name="Y(2645,13)" index="301428" value="1"/>
  <variable name="Y(2656,24)" index="302693" value="1"/>
  <variable name="Y(2722,34)" index="310227" value="1"/>
  <variable name="Y(2796,32)" index="318661" value="1"/>
  <variable name="Y(2828,28)" index="322305" value="1"/>
  <variable name="Y(2899,43)" index="330414" value="1"/>
  <variable name="Y(2930,18)" index="333923" value="1"/>
  <variable name="Y(2939,27)" index="334958" value="1"/>
  <variable name="Y(2967,56)" index="338179" value="1"/>
  <variable name="Y(2982,14)" index="339847" value="1"/>
  <variable name="Y(3074,50)" index="350371" value="1"/>
  <variable name="Y(3084,4)" index="351465" value="1"/>
  <variable name="Y(3088,8)" index="351925" value="1"/>
  <variable name="Y(3090,10)" index="352155" value="1"/>
  <variable name="Y(3139,3)" index="357734" value="1"/>
  <variable name="Y(3187,51)" index="363254" value="1"/>
  <variable name="X(1,32,31)" index="363918" value="1"/>
  <variable name="X(1,58,1569)" index="368648" value="1"/>
  <variable name="X(2,5,97)" index="370368" value="1"/>
  <variable name="X(2,59,394)" index="373857" value="1"/>
  <variable name="X(3,32,160)" index="376815" value="1"/>
  <variable name="X(3,60,3139)" index="382986" value="1"/>
  <variable name="X(4,34,192)" index="383231" value="1"/>
  <variable name="X(4,61,3084)" index="389315" value="1"/>
  <variable name="X(5,2,394)" index="389817" value="1"/>
  <variable name="X(5,8,3088)" index="395703" value="1"/>
  <variable name="X(5,10,97)" index="395904" value="1"/>
  <variable name="X(5,52,445)" index="399444" value="1"/>
  <variable name="X(5,62,2245)" index="404436" value="1"/>
  <variable name="X(6,52,305)" index="405688" value="1"/>
  <variable name="X(6,63,2246)" index="410821" value="1"/>
  <variable name="X(7,42,346)" index="412113" value="1"/>
  <variable name="X(7,52,2347)" index="417306" value="1"/>
  <variable name="X(7,64,2023)" index="420174" value="1"/>
  <variable name="X(8,5,394)" index="421737" value="1"/>
  <variable name="X(8,65,3088)" index="427623" value="1"/>
  <variable name="X(9,22,492)" index="428219" value="1"/>
  <variable name="X(9,66,2137)" index="433056" value="1"/>
  <variable name="X(10,5,2245)" index="436356" value="1"/>
  <variable name="X(10,11,346)" index="437649" value="1"/>
  <variable name="X(10,21,1757)" index="442252" value="1"/>
  <variable name="X(10,41,600)" index="444287" value="1"/>
  <variable name="X(10,42,97)" index="446976" value="1"/>
  <variable name="X(10,43,672)" index="450743" value="1"/>
  <variable name="X(10,52,3187)" index="456450" value="1"/>
  <variable name="X(10,67,3090)" index="459545" value="1"/>
  <variable name="X(11,10,600)" index="460247" value="1"/>
  <variable name="X(11,68,346)" index="463185" value="1"/>
  <variable name="X(12,20,672)" index="466703" value="1"/>
  <variable name="X(12,69,2644)" index="471867" value="1"/>
  <variable name="X(13,27,708)" index="473123" value="1"/>
  <variable name="X(13,70,2645)" index="478252" value="1"/>
  <variable name="X(14,27,2939)" index="481738" value="1"/>
  <variable name="X(14,31,2494)" index="484485" value="1"/>
  <variable name="X(14,32,3139)" index="488322" value="1"/>
  <variable name="X(14,43,1757)" index="490132" value="1"/>
  <variable name="X(14,46,941)" index="492508" value="1"/>
  <variable name="X(14,52,1552)" index="496311" value="1"/>
  <variable name="X(14,54,445)" index="498396" value="1"/>
  <variable name="X(14,71,2982)" index="504125" value="1"/>
  <variable name="X(15,32,2796)" index="507131" value="1"/>
  <variable name="X(15,33,1432)" index="508959" value="1"/>
  <variable name="X(15,34,1826)" index="512545" value="1"/>
  <variable name="X(15,50,3074)" index="516985" value="1"/>
  <variable name="X(15,55,1398)" index="518501" value="1"/>
  <variable name="X(15,72,911)" index="521206" value="1"/>
  <variable name="X(16,31,874)" index="524361" value="1"/>
  <variable name="X(16,73,1192)" index="527871" value="1"/>
  <variable name="X(17,31,941)" index="530812" value="1"/>
  <variable name="X(17,53,874)" index="533937" value="1"/>
  <variable name="X(17,74,1921)" index="538176" value="1"/>
  <variable name="X(18,21,2137)" index="541584" value="1"/>
  <variable name="X(18,38,2222)" index="544861" value="1"/>
  <variable name="X(18,40,1439)" index="547270" value="1"/>
  <variable name="X(18,46,492)" index="549515" value="1"/>
  <variable name="X(18,52,2127)" index="554342" value="1"/>
  <variable name="X(18,75,2930)" index="558337" value="1"/>
  <variable name="X(19,21,1030)" index="559629" value="1"/>
  <variable name="X(19,76,1251)" index="563042" value="1"/>
  <variable name="X(20,12,2644)" index="567627" value="1"/>
  <variable name="X(20,21,672)" index="568847" value="1"/>
  <variable name="X(20,77,1532)" index="572899" value="1"/>
  <variable name="X(21,10,672)" index="575231" value="1"/>
  <variable name="X(21,18,492)" index="578243" value="1"/>
  <variable name="X(21,19,1251)" index="582194" value="1"/>
  <variable name="X(21,20,1532)" index="585667" value="1"/>
  <variable name="X(21,22,2137)" index="589464" value="1"/>
  <variable name="X(21,23,1030)" index="591549" value="1"/>
  <variable name="X(21,78,1757)" index="595468" value="1"/>
  <variable name="X(22,9,2137)" index="599040" value="1"/>
  <variable name="X(22,21,492)" index="600587" value="1"/>
  <variable name="X(22,79,1141)" index="604428" value="1"/>
  <variable name="X(23,21,1251)" index="607730" value="1"/>
  <variable name="X(23,80,1030)" index="610701" value="1"/>
  <variable name="X(24,34,1335)" index="614198" value="1"/>
  <variable name="X(24,81,2656)" index="618711" value="1"/>
  <variable name="X(25,34,1398)" index="620645" value="1"/>
  <variable name="X(25,82,192)" index="622631" value="1"/>
  <variable name="X(26,52,1439)" index="627070" value="1"/>
  <variable name="X(26,83,305)" index="629128" value="1"/>
  <variable name="X(27,13,2645)" index="634660" value="1"/>
  <variable name="X(27,14,1552)" index="636759" value="1"/>
  <variable name="X(27,28,2828)" index="641227" value="1"/>
  <variable name="X(27,56,708)" index="642299" value="1"/>
  <variable name="X(27,84,2939)" index="647722" value="1"/>
  <variable name="X(28,27,1552)" index="649527" value="1"/>
  <variable name="X(28,85,2828)" index="653995" value="1"/>
  <variable name="X(29,31,1569)" index="655928" value="1"/>
  <variable name="X(29,86,1933)" index="659484" value="1"/>
  <variable name="X(30,31,1654)" index="662397" value="1"/>
  <variable name="X(30,87,2494)" index="666429" value="1"/>
  <variable name="X(31,14,941)" index="668068" value="1"/>
  <variable name="X(31,16,1192)" index="671511" value="1"/>
  <variable name="X(31,17,874)" index="674385" value="1"/>
  <variable name="X(31,29,1933)" index="678636" value="1"/>
  <variable name="X(31,30,2494)" index="682389" value="1"/>
  <variable name="X(31,32,1569)" index="684656" value="1"/>
  <variable name="X(31,88,1654)" index="687933" value="1"/>
  <variable name="X(32,1,1569)" index="691040" value="1"/>
  <variable name="X(32,3,3139)" index="695802" value="1"/>
  <variable name="X(32,14,2939)" index="698794" value="1"/>
  <variable name="X(32,15,911)" index="699958" value="1"/>
  <variable name="X(32,31,1933)" index="704172" value="1"/>
  <variable name="X(32,34,2722)" index="708153" value="1"/>
  <variable name="X(32,49,160)" index="708783" value="1"/>
  <variable name="X(32,53,2796)" index="714611" value="1"/>
  <variable name="X(32,89,31)" index="715038" value="1"/>
  <variable name="X(33,15,1826)" index="720025" value="1"/>
  <variable name="X(33,90,1432)" index="722823" value="1"/>
  <variable name="X(34,4,3084)" index="727667" value="1"/>
  <variable name="X(34,15,1398)" index="729173" value="1"/>
  <variable name="X(34,24,2656)" index="733623" value="1"/>
  <variable name="X(34,25,192)" index="734351" value="1"/>
  <variable name="X(34,32,1933)" index="739284" value="1"/>
  <variable name="X(34,35,1826)" index="742369" value="1"/>
  <variable name="X(34,36,2967)" index="746702" value="1"/>
  <variable name="X(34,37,3187)" index="750114" value="1"/>
  <variable name="X(34,48,1335)" index="751454" value="1"/>
  <variable name="X(34,52,2023)" index="755334" value="1"/>
  <variable name="X(34,53,1060)" index="757563" value="1"/>
  <variable name="X(34,91,2722)" index="762417" value="1"/>
  <variable name="X(35,34,1933)" index="764820" value="1"/>
  <variable name="X(35,53,1921)" index="768000" value="1"/>
  <variable name="X(35,92,1826)" index="771097" value="1"/>
  <variable name="X(36,34,3084)" index="775547" value="1"/>
  <variable name="X(36,56,2967)" index="778622" value="1"/>
  <variable name="X(36,93,1883)" index="780730" value="1"/>
  <variable name="X(37,34,2023)" index="784062" value="1"/>
  <variable name="X(37,51,3187)" index="788418" value="1"/>
  <variable name="X(37,56,2828)" index="791251" value="1"/>
  <variable name="X(37,94,708)" index="792323" value="1"/>
  <variable name="X(38,18,2127)" index="796934" value="1"/>
  <variable name="X(38,95,2222)" index="800221" value="1"/>
  <variable name="X(39,46,2137)" index="803328" value="1"/>
  <variable name="X(39,96,2615)" index="806998" value="1"/>
  <variable name="X(40,18,2222)" index="809797" value="1"/>
  <variable name="X(40,97,1439)" index="812206" value="1"/>
  <variable name="X(41,10,2245)" index="816204" value="1"/>
  <variable name="X(41,52,2246)" index="819397" value="1"/>
  <variable name="X(41,98,1552)" index="821895" value="1"/>
  <variable name="X(42,7,2347)" index="825882" value="1"/>
  <variable name="X(42,10,346)" index="827073" value="1"/>
  <variable name="X(42,99,97)" index="830016" value="1"/>
  <variable name="X(43,10,1757)" index="834868" value="1"/>
  <variable name="X(43,14,3139)" index="839442" value="1"/>
  <variable name="X(43,57,672)" index="840167" value="1"/>
  <variable name="X(43,100,2899)" index="845586" value="1"/>
  <variable name="X(44,46,2454)" index="848333" value="1"/>
  <variable name="X(44,101,155)" index="849226" value="1"/>
  <variable name="X(45,46,2494)" index="854757" value="1"/>
  <variable name="X(45,102,492)" index="855947" value="1"/>
  <variable name="X(46,14,2494)" index="861141" value="1"/>
  <variable name="X(46,18,2137)" index="863976" value="1"/>
  <variable name="X(46,39,2615)" index="867646" value="1"/>
  <variable name="X(46,44,155)" index="868378" value="1"/>
  <variable name="X(46,45,492)" index="871907" value="1"/>
  <variable name="X(46,47,2454)" index="877061" value="1"/>
  <variable name="X(46,103,941)" index="878740" value="1"/>
  <variable name="X(47,46,2615)" index="883606" value="1"/>
  <variable name="X(47,104,2454)" index="886637" value="1"/>
  <variable name="X(48,34,2656)" index="890031" value="1"/>
  <variable name="X(48,105,1335)" index="891902" value="1"/>
  <variable name="X(49,32,2722)" index="896481" value="1"/>
  <variable name="X(49,106,160)" index="897111" value="1"/>
  <variable name="X(50,15,2796)" index="902939" value="1"/>
  <variable name="X(50,107,3074)" index="906409" value="1"/>
  <variable name="X(51,37,2828)" index="909355" value="1"/>
  <variable name="X(51,108,3187)" index="912906" value="1"/>
  <variable name="X(52,5,3088)" index="915999" value="1"/>
  <variable name="X(52,6,2246)" index="918349" value="1"/>
  <variable name="X(52,7,2023)" index="921318" value="1"/>
  <variable name="X(52,10,3090)" index="925577" value="1"/>
  <variable name="X(52,14,445)" index="926124" value="1"/>
  <variable name="X(52,18,1439)" index="930310" value="1"/>
  <variable name="X(52,26,305)" index="932368" value="1"/>
  <variable name="X(52,34,3187)" index="938442" value="1"/>
  <variable name="X(52,41,1552)" index="939999" value="1"/>
  <variable name="X(52,56,2127)" index="943766" value="1"/>
  <variable name="X(52,109,2347)" index="947178" value="1"/>
  <variable name="X(53,17,1921)" index="949944" value="1"/>
  <variable name="X(53,32,911)" index="952126" value="1"/>
  <variable name="X(53,34,2967)" index="957374" value="1"/>
  <variable name="X(53,35,874)" index="958473" value="1"/>
  <variable name="X(53,110,1060)" index="961851" value="1"/>
  <variable name="X(54,14,2982)" index="966965" value="1"/>
  <variable name="X(54,111,445)" index="967620" value="1"/>
  <variable name="X(55,15,3074)" index="973441" value="1"/>
  <variable name="X(55,112,1398)" index="974957" value="1"/>
  <variable name="X(56,27,2828)" index="979579" value="1"/>
  <variable name="X(56,36,3084)" index="983027" value="1"/>
  <variable name="X(56,37,708)" index="983843" value="1"/>
  <variable name="X(56,52,3088)" index="989415" value="1"/>
  <variable name="X(56,113,2967)" index="992486" value="1"/>
  <variable name="X(57,43,3139)" index="995850" value="1"/>
  <variable name="X(57,114,672)" index="996575" value="1"/>
 </variables>
</CPLEXSolution>
